% Auto-generated by scripts/generate_dzn.py
% problem_type   = regex
% instance       = regex_60
% source_json    = instances_json/1_medium_blowup/regex_60.json
% blowup         = 3.5
% representation = DFA

mode = 0;

var_count = 18;
n_constraints = 2;
Q = 60;
S = 3;
q0 = [1, 1];
F = [{42, 43, 44, 45, 46, 47, 48, 49, 50, 51, 52, 53, 54, 55, 56, 57, 58, 59, 60}, {9}];
weights = [10, 9, 2, 4, 3, 7, 6, 6, 8, 1, 4, 1, 7, 9, 5, 8, 6, 6];
d_dfa = array3d(1..2, 1..60, 1..3, [
  % k = 1
    1, 1, 2,
    3, 1, 2,
    1, 4, 2,
    5, 5, 6,
    7, 7, 8,
    9, 7, 8,
    10, 10, 11,
    12, 10, 11,
    10, 13, 11,
    14, 14, 15,
    16, 14, 15,
    14, 17, 15,
    18, 18, 19,
    20, 20, 21,
    22, 20, 21,
    20, 23, 21,
    24, 24, 25,
    26, 26, 27,
    28, 26, 27,
    29, 29, 30,
    31, 29, 30,
    29, 32, 30,
    33, 33, 34,
    35, 35, 36,
    37, 35, 36,
    38, 38, 39,
    40, 38, 39,
    38, 41, 39,
    42, 42, 43,
    44, 42, 43,
    42, 45, 43,
    46, 46, 47,
    48, 48, 49,
    50, 48, 49,
    51, 51, 52,
    53, 51, 52,
    51, 54, 52,
    55, 55, 56,
    57, 55, 56,
    55, 58, 56,
    59, 59, 60,
    1, 1, 2,
    3, 1, 2,
    1, 4, 2,
    5, 5, 6,
    7, 7, 8,
    9, 7, 8,
    10, 10, 11,
    12, 10, 11,
    10, 13, 11,
    14, 14, 15,
    16, 14, 15,
    14, 17, 15,
    18, 18, 19,
    20, 20, 21,
    22, 20, 21,
    20, 23, 21,
    24, 24, 25,
    26, 26, 27,
    28, 26, 27,

  % k = 2
    1, 2, 1,
    2, 3, 2,
    3, 4, 3,
    4, 5, 4,
    5, 6, 5,
    6, 7, 6,
    7, 8, 7,
    8, 9, 8,
    9, 10, 9,
    10, 10, 10,
    0, 0, 0,
    0, 0, 0,
    0, 0, 0,
    0, 0, 0,
    0, 0, 0,
    0, 0, 0,
    0, 0, 0,
    0, 0, 0,
    0, 0, 0,
    0, 0, 0,
    0, 0, 0,
    0, 0, 0,
    0, 0, 0,
    0, 0, 0,
    0, 0, 0,
    0, 0, 0,
    0, 0, 0,
    0, 0, 0,
    0, 0, 0,
    0, 0, 0,
    0, 0, 0,
    0, 0, 0,
    0, 0, 0,
    0, 0, 0,
    0, 0, 0,
    0, 0, 0,
    0, 0, 0,
    0, 0, 0,
    0, 0, 0,
    0, 0, 0,
    0, 0, 0,
    0, 0, 0,
    0, 0, 0,
    0, 0, 0,
    0, 0, 0,
    0, 0, 0,
    0, 0, 0,
    0, 0, 0,
    0, 0, 0,
    0, 0, 0,
    0, 0, 0,
    0, 0, 0,
    0, 0, 0,
    0, 0, 0,
    0, 0, 0,
    0, 0, 0,
    0, 0, 0,
    0, 0, 0,
    0, 0, 0,
    0, 0, 0
]);
d_nfa = array3d(1..2, 1..60, 1..3, [
  % k = 1
    {}, {}, {},
    {}, {}, {},
    {}, {}, {},
    {}, {}, {},
    {}, {}, {},
    {}, {}, {},
    {}, {}, {},
    {}, {}, {},
    {}, {}, {},
    {}, {}, {},
    {}, {}, {},
    {}, {}, {},
    {}, {}, {},
    {}, {}, {},
    {}, {}, {},
    {}, {}, {},
    {}, {}, {},
    {}, {}, {},
    {}, {}, {},
    {}, {}, {},
    {}, {}, {},
    {}, {}, {},
    {}, {}, {},
    {}, {}, {},
    {}, {}, {},
    {}, {}, {},
    {}, {}, {},
    {}, {}, {},
    {}, {}, {},
    {}, {}, {},
    {}, {}, {},
    {}, {}, {},
    {}, {}, {},
    {}, {}, {},
    {}, {}, {},
    {}, {}, {},
    {}, {}, {},
    {}, {}, {},
    {}, {}, {},
    {}, {}, {},
    {}, {}, {},
    {}, {}, {},
    {}, {}, {},
    {}, {}, {},
    {}, {}, {},
    {}, {}, {},
    {}, {}, {},
    {}, {}, {},
    {}, {}, {},
    {}, {}, {},
    {}, {}, {},
    {}, {}, {},
    {}, {}, {},
    {}, {}, {},
    {}, {}, {},
    {}, {}, {},
    {}, {}, {},
    {}, {}, {},
    {}, {}, {},
    {}, {}, {},

  % k = 2
    {}, {}, {},
    {}, {}, {},
    {}, {}, {},
    {}, {}, {},
    {}, {}, {},
    {}, {}, {},
    {}, {}, {},
    {}, {}, {},
    {}, {}, {},
    {}, {}, {},
    {}, {}, {},
    {}, {}, {},
    {}, {}, {},
    {}, {}, {},
    {}, {}, {},
    {}, {}, {},
    {}, {}, {},
    {}, {}, {},
    {}, {}, {},
    {}, {}, {},
    {}, {}, {},
    {}, {}, {},
    {}, {}, {},
    {}, {}, {},
    {}, {}, {},
    {}, {}, {},
    {}, {}, {},
    {}, {}, {},
    {}, {}, {},
    {}, {}, {},
    {}, {}, {},
    {}, {}, {},
    {}, {}, {},
    {}, {}, {},
    {}, {}, {},
    {}, {}, {},
    {}, {}, {},
    {}, {}, {},
    {}, {}, {},
    {}, {}, {},
    {}, {}, {},
    {}, {}, {},
    {}, {}, {},
    {}, {}, {},
    {}, {}, {},
    {}, {}, {},
    {}, {}, {},
    {}, {}, {},
    {}, {}, {},
    {}, {}, {},
    {}, {}, {},
    {}, {}, {},
    {}, {}, {},
    {}, {}, {},
    {}, {}, {},
    {}, {}, {},
    {}, {}, {},
    {}, {}, {},
    {}, {}, {},
    {}, {}, {}
]);
